\ Model Vehicle Routing
\ LP format - for model browsing. Use MPS format to capture full model detail.
Minimize
  0 C0 + 13.8924439894498 C1 + 21.02379604162864 C2 + 32.55764119219941 C3
   + 17.20465053408525 C4 + 14.14213562373095 C5 + 11.40175425099138 C6
   + 26.41968962724581 C7 + 22.02271554554524 C8 + 23.08679276123039 C9
   + 28.31960451701259 C10 + 12.0415945787923 C11 + 8.062257748298549 C12
   + 29.1547594742265 C13 + 18.11077027627483 C14 + 24.73863375370596 C15
   + 13.8924439894498 C16 + 0 C17 + 12.36931687685298 C18
   + 19.20937271229855 C19 + 31.06444913401813 C20 + 22.20360331117452 C21
   + 16.76305461424021 C22 + 22.82542442102665 C23 + 11.6619037896906 C24
   + 24.20743687382041 C25 + 34.0147027033899 C26 + 12.08304597359457 C27
   + 20.8806130178211 C28 + 41.86884283091664 C29 + 26.92582403567252 C30
   + 36.01388621073821 C31 + 21.02379604162864 C32 + 12.36931687685298 C33
   + 0 C34 + 15.29705854077836 C35 + 37.01351104664349 C36
   + 21.02379604162864 C37 + 28.0713376952364 C38 + 34.92849839314596 C39
   + 22.20360331117452 C40 + 16.27882059609971 C41 + 28.0713376952364 C42
   + 10.63014581273465 C43 + 24.75883680627989 C44 + 50.11985634456667 C45
   + 37.65634076752546 C46 + 35.4682957019364 C47 + 32.55764119219941 C48
   + 19.20937271229855 C49 + 15.29705854077836 C50 + 0 C51
   + 49.67896939349689 C52 + 36.05551275463989 C53 + 35.35533905932738 C54
   + 35.0142828000232 C55 + 21.09502310972899 C56 + 31 C57
   + 43.01162633521314 C58 + 25.07987240796891 C59 + 38.27531841800928 C60
   + 61.07372593840988 C61 + 45.65084884205331 C62 + 50.59644256269407 C63
   + 17.20465053408525 C64 + 31.06444913401813 C65 + 37.01351104664349 C66
   + 49.67896939349689 C67 + 0 C68 + 20.39607805437114 C69
   + 21.02379604162864 C70 + 37.12142238654117 C71 + 37.64306044943742 C72
   + 32.7566787083184 C73 + 31.40063693621516 C74 + 26.6270539113887 C75
   + 12.52996408614167 C76 + 15.03329637837291 C77 + 17.88854381999832 C78
   + 18.86796226411321 C79 + 14.14213562373095 C80 + 22.20360331117452 C81
   + 21.02379604162864 C82 + 36.05551275463989 C83 + 20.39607805437114 C84
   + 0 C85 + 25.49509756796392 C86 + 40.22437072223753 C87
   + 33.24154027718932 C88 + 12.36931687685298 C89 + 14.2126704035519 C90
   + 11.18033988749895 C91 + 9.219544457292887 C92 + 35.35533905932738 C93
   + 30.46309242345563 C94 + 14.56021977856104 C95 + 11.40175425099138 C96
   + 16.76305461424021 C97 + 28.0713376952364 C98 + 35.35533905932738 C99
   + 21.02379604162864 C100 + 25.49509756796392 C101 + 0 C102
   + 16.49242250247064 C103 + 18.02775637731995 C104
   + 34.0147027033899 C105 + 39.69886648255842 C106
   + 21.84032966784156 C107 + 18.02775637731995 C108
   + 27.20294101747089 C109 + 10.295630140987 C110 + 34.43835071544513 C111
   + 26.41968962724581 C112 + 22.82542442102665 C113
   + 34.92849839314596 C114 + 35.0142828000232 C115
   + 37.12142238654117 C116 + 40.22437072223753 C117
   + 16.49242250247064 C118 + 0 C119 + 14.0356688476182 C120
   + 46.09772228646444 C121 + 54.03702434442518 C122
   + 33.30165161069343 C123 + 34.0147027033899 C124
   + 39.84971769034255 C125 + 21.5870331449229 C126
   + 50.69516742254631 C127 + 22.02271554554524 C128
   + 11.6619037896906 C129 + 22.20360331117452 C130
   + 21.09502310972899 C131 + 37.64306044943742 C132
   + 33.24154027718932 C133 + 18.02775637731995 C134
   + 14.0356688476182 C135 + 0 C136 + 35.80502757993631 C137
   + 45.61797891182817 C138 + 23.70653918225939 C139 + 30 C140
   + 45.22167621838005 C141 + 27.58622844826744 C142
   + 46.2709412050371 C143 + 23.08679276123039 C144
   + 24.20743687382041 C145 + 16.27882059609971 C146 + 31 C147
   + 32.7566787083184 C148 + 12.36931687685298 C149 + 34.0147027033899 C150
   + 46.09772228646444 C151 + 35.80502757993631 C152 + 0 C153
   + 12.0415945787923 C154 + 12.8062484748657 C155 + 21.02379604162864 C156
   + 47.67598976424087 C157 + 41 C158 + 23.3452350598575 C159
   + 28.31960451701259 C160 + 34.0147027033899 C161 + 28.0713376952364 C162
   + 43.01162633521314 C163 + 31.40063693621516 C164
   + 14.2126704035519 C165 + 39.69886648255842 C166
   + 54.03702434442518 C167 + 45.61797891182817 C168
   + 12.0415945787923 C169 + 0 C170 + 21.93171219946131 C171
   + 22.82542442102665 C172 + 46.17358552246078 C173
   + 44.2944691807002 C174 + 15.8113883008419 C175 + 12.0415945787923 C176
   + 12.08304597359457 C177 + 10.63014581273465 C178
   + 25.07987240796891 C179 + 26.6270539113887 C180
   + 11.18033988749895 C181 + 21.84032966784156 C182
   + 33.30165161069343 C183 + 23.70653918225939 C184
   + 12.8062484748657 C185 + 21.93171219946131 C186 + 0 C187
   + 14.2126704035519 C188 + 40.31128874149275 C189
   + 30.01666203960727 C190 + 25.70992026436488 C191
   + 8.062257748298549 C192 + 20.8806130178211 C193
   + 24.75883680627989 C194 + 38.27531841800928 C195
   + 12.52996408614167 C196 + 9.219544457292887 C197
   + 18.02775637731995 C198 + 34.0147027033899 C199 + 30 C200
   + 21.02379604162864 C201 + 22.82542442102665 C202
   + 14.2126704035519 C203 + 0 C204 + 26.92582403567252 C205
   + 21.47091055358389 C206 + 16.76305461424021 C207
   + 29.1547594742265 C208 + 41.86884283091664 C209
   + 50.11985634456667 C210 + 61.07372593840988 C211
   + 15.03329637837291 C212 + 35.35533905932738 C213
   + 27.20294101747089 C214 + 39.84971769034255 C215
   + 45.22167621838005 C216 + 47.67598976424087 C217
   + 46.17358552246078 C218 + 40.31128874149275 C219
   + 26.92582403567252 C220 + 0 C221 + 18.38477631085023 C222
   + 32.28002478313795 C223 + 18.11077027627483 C224
   + 26.92582403567252 C225 + 37.65634076752546 C226
   + 45.65084884205331 C227 + 17.88854381999832 C228
   + 30.46309242345563 C229 + 10.295630140987 C230 + 21.5870331449229 C231
   + 27.58622844826744 C232 + 41 C233 + 44.2944691807002 C234
   + 30.01666203960727 C235 + 21.47091055358389 C236
   + 18.38477631085023 C237 + 0 C238 + 35.38361202590826 C239
   + 24.73863375370596 C240 + 36.01388621073821 C241
   + 35.4682957019364 C242 + 50.59644256269407 C243
   + 18.86796226411321 C244 + 14.56021977856104 C245
   + 34.43835071544513 C246 + 50.69516742254631 C247
   + 46.2709412050371 C248 + 23.3452350598575 C249 + 15.8113883008419 C250
   + 25.70992026436488 C251 + 16.76305461424021 C252
   + 32.28002478313795 C253 + 35.38361202590826 C254 + 0 C255
Subject To
 R0: C1 + C33 + C49 + C65 + C81 + C97 + C113 + C129 + C145 + C161 + C177
   + C193 + C209 + C225 + C241 = 1
 R1: C2 + C18 + C50 + C66 + C82 + C98 + C114 + C130 + C146 + C162 + C178
   + C194 + C210 + C226 + C242 = 1
 R2: C3 + C19 + C35 + C67 + C83 + C99 + C115 + C131 + C147 + C163 + C179
   + C195 + C211 + C227 + C243 = 1
 R3: C4 + C20 + C36 + C52 + C84 + C100 + C116 + C132 + C148 + C164 + C180
   + C196 + C212 + C228 + C244 = 1
 R4: C5 + C21 + C37 + C53 + C69 + C101 + C117 + C133 + C149 + C165 + C181
   + C197 + C213 + C229 + C245 = 1
 R5: C6 + C22 + C38 + C54 + C70 + C86 + C118 + C134 + C150 + C166 + C182
   + C198 + C214 + C230 + C246 = 1
 R6: C7 + C23 + C39 + C55 + C71 + C87 + C103 + C135 + C151 + C167 + C183
   + C199 + C215 + C231 + C247 = 1
 R7: C8 + C24 + C40 + C56 + C72 + C88 + C104 + C120 + C152 + C168 + C184
   + C200 + C216 + C232 + C248 = 1
 R8: C9 + C25 + C41 + C57 + C73 + C89 + C105 + C121 + C137 + C169 + C185
   + C201 + C217 + C233 + C249 = 1
 R9: C10 + C26 + C42 + C58 + C74 + C90 + C106 + C122 + C138 + C154 + C186
   + C202 + C218 + C234 + C250 = 1
 R10: C11 + C27 + C43 + C59 + C75 + C91 + C107 + C123 + C139 + C155 + C171
   + C203 + C219 + C235 + C251 = 1
 R11: C12 + C28 + C44 + C60 + C76 + C92 + C108 + C124 + C140 + C156 + C172
   + C188 + C220 + C236 + C252 = 1
 R12: C13 + C29 + C45 + C61 + C77 + C93 + C109 + C125 + C141 + C157 + C173
   + C189 + C205 + C237 + C253 = 1
 R13: C14 + C30 + C46 + C62 + C78 + C94 + C110 + C126 + C142 + C158 + C174
   + C190 + C206 + C222 + C254 = 1
 R14: C15 + C31 + C47 + C63 + C79 + C95 + C111 + C127 + C143 + C159 + C175
   + C191 + C207 + C223 + C239 = 1
 R15: C16 + C18 + C19 + C20 + C21 + C22 + C23 + C24 + C25 + C26 + C27 + C28
   + C29 + C30 + C31 = 1
 R16: C32 + C33 + C35 + C36 + C37 + C38 + C39 + C40 + C41 + C42 + C43 + C44
   + C45 + C46 + C47 = 1
 R17: C48 + C49 + C50 + C52 + C53 + C54 + C55 + C56 + C57 + C58 + C59 + C60
   + C61 + C62 + C63 = 1
 R18: C64 + C65 + C66 + C67 + C69 + C70 + C71 + C72 + C73 + C74 + C75 + C76
   + C77 + C78 + C79 = 1
 R19: C80 + C81 + C82 + C83 + C84 + C86 + C87 + C88 + C89 + C90 + C91 + C92
   + C93 + C94 + C95 = 1
 R20: C96 + C97 + C98 + C99 + C100 + C101 + C103 + C104 + C105 + C106
   + C107 + C108 + C109 + C110 + C111 = 1
 R21: C112 + C113 + C114 + C115 + C116 + C117 + C118 + C120 + C121 + C122
   + C123 + C124 + C125 + C126 + C127 = 1
 R22: C128 + C129 + C130 + C131 + C132 + C133 + C134 + C135 + C137 + C138
   + C139 + C140 + C141 + C142 + C143 = 1
 R23: C144 + C145 + C146 + C147 + C148 + C149 + C150 + C151 + C152 + C154
   + C155 + C156 + C157 + C158 + C159 = 1
 R24: C160 + C161 + C162 + C163 + C164 + C165 + C166 + C167 + C168 + C169
   + C171 + C172 + C173 + C174 + C175 = 1
 R25: C176 + C177 + C178 + C179 + C180 + C181 + C182 + C183 + C184 + C185
   + C186 + C188 + C189 + C190 + C191 = 1
 R26: C192 + C193 + C194 + C195 + C196 + C197 + C198 + C199 + C200 + C201
   + C202 + C203 + C205 + C206 + C207 = 1
 R27: C208 + C209 + C210 + C211 + C212 + C213 + C214 + C215 + C216 + C217
   + C218 + C219 + C220 + C222 + C223 = 1
 R28: C224 + C225 + C226 + C227 + C228 + C229 + C230 + C231 + C232 + C233
   + C234 + C235 + C236 + C237 + C239 = 1
 R29: C240 + C241 + C242 + C243 + C244 + C245 + C246 + C247 + C248 + C249
   + C250 + C251 + C252 + C253 + C254 = 1
 R30: 83 C1 + C256 <= 90
 R31: 60 C2 + C257 <= 90
 R32: 74 C3 + C258 <= 90
 R33: 81 C4 + C259 <= 90
 R34: 69 C5 + C260 <= 90
 R35: 75 C6 + C261 <= 90
 R36: 71 C7 + C262 <= 90
 R37: 67 C8 + C263 <= 90
 R38: 79 C9 + C264 <= 90
 R39: 85 C10 + C265 <= 90
 R40: 71 C11 + C266 <= 90
 R41: 61 C12 + C267 <= 90
 R42: 67 C13 + C268 <= 90
 R43: 69 C14 + C269 <= 90
 R44: 80 C15 + C270 <= 90
 R45: 90 C18 + C256 - C257 <= 60
 R46: 90 C19 + C256 - C258 <= 74
 R47: 90 C20 + C256 - C259 <= 81
 R48: 90 C21 + C256 - C260 <= 69
 R49: 90 C22 + C256 - C261 <= 75
 R50: 90 C23 + C256 - C262 <= 71
 R51: 90 C24 + C256 - C263 <= 67
 R52: 90 C25 + C256 - C264 <= 79
 R53: 90 C26 + C256 - C265 <= 85
 R54: 90 C27 + C256 - C266 <= 71
 R55: 90 C28 + C256 - C267 <= 61
 R56: 90 C29 + C256 - C268 <= 67
 R57: 90 C30 + C256 - C269 <= 69
 R58: 90 C31 + C256 - C270 <= 80
 R59: 90 C33 - C256 + C257 <= 83
 R60: 90 C35 + C257 - C258 <= 74
 R61: 90 C36 + C257 - C259 <= 81
 R62: 90 C37 + C257 - C260 <= 69
 R63: 90 C38 + C257 - C261 <= 75
 R64: 90 C39 + C257 - C262 <= 71
 R65: 90 C40 + C257 - C263 <= 67
 R66: 90 C41 + C257 - C264 <= 79
 R67: 90 C42 + C257 - C265 <= 85
 R68: 90 C43 + C257 - C266 <= 71
 R69: 90 C44 + C257 - C267 <= 61
 R70: 90 C45 + C257 - C268 <= 67
 R71: 90 C46 + C257 - C269 <= 69
 R72: 90 C47 + C257 - C270 <= 80
 R73: 90 C49 - C256 + C258 <= 83
 R74: 90 C50 - C257 + C258 <= 60
 R75: 90 C52 + C258 - C259 <= 81
 R76: 90 C53 + C258 - C260 <= 69
 R77: 90 C54 + C258 - C261 <= 75
 R78: 90 C55 + C258 - C262 <= 71
 R79: 90 C56 + C258 - C263 <= 67
 R80: 90 C57 + C258 - C264 <= 79
 R81: 90 C58 + C258 - C265 <= 85
 R82: 90 C59 + C258 - C266 <= 71
 R83: 90 C60 + C258 - C267 <= 61
 R84: 90 C61 + C258 - C268 <= 67
 R85: 90 C62 + C258 - C269 <= 69
 R86: 90 C63 + C258 - C270 <= 80
 R87: 90 C65 - C256 + C259 <= 83
 R88: 90 C66 - C257 + C259 <= 60
 R89: 90 C67 - C258 + C259 <= 74
 R90: 90 C69 + C259 - C260 <= 69
 R91: 90 C70 + C259 - C261 <= 75
 R92: 90 C71 + C259 - C262 <= 71
 R93: 90 C72 + C259 - C263 <= 67
 R94: 90 C73 + C259 - C264 <= 79
 R95: 90 C74 + C259 - C265 <= 85
 R96: 90 C75 + C259 - C266 <= 71
 R97: 90 C76 + C259 - C267 <= 61
 R98: 90 C77 + C259 - C268 <= 67
 R99: 90 C78 + C259 - C269 <= 69
 R100: 90 C79 + C259 - C270 <= 80
 R101: 90 C81 - C256 + C260 <= 83
 R102: 90 C82 - C257 + C260 <= 60
 R103: 90 C83 - C258 + C260 <= 74
 R104: 90 C84 - C259 + C260 <= 81
 R105: 90 C86 + C260 - C261 <= 75
 R106: 90 C87 + C260 - C262 <= 71
 R107: 90 C88 + C260 - C263 <= 67
 R108: 90 C89 + C260 - C264 <= 79
 R109: 90 C90 + C260 - C265 <= 85
 R110: 90 C91 + C260 - C266 <= 71
 R111: 90 C92 + C260 - C267 <= 61
 R112: 90 C93 + C260 - C268 <= 67
 R113: 90 C94 + C260 - C269 <= 69
 R114: 90 C95 + C260 - C270 <= 80
 R115: 90 C97 - C256 + C261 <= 83
 R116: 90 C98 - C257 + C261 <= 60
 R117: 90 C99 - C258 + C261 <= 74
 R118: 90 C100 - C259 + C261 <= 81
 R119: 90 C101 - C260 + C261 <= 69
 R120: 90 C103 + C261 - C262 <= 71
 R121: 90 C104 + C261 - C263 <= 67
 R122: 90 C105 + C261 - C264 <= 79
 R123: 90 C106 + C261 - C265 <= 85
 R124: 90 C107 + C261 - C266 <= 71
 R125: 90 C108 + C261 - C267 <= 61
 R126: 90 C109 + C261 - C268 <= 67
 R127: 90 C110 + C261 - C269 <= 69
 R128: 90 C111 + C261 - C270 <= 80
 R129: 90 C113 - C256 + C262 <= 83
 R130: 90 C114 - C257 + C262 <= 60
 R131: 90 C115 - C258 + C262 <= 74
 R132: 90 C116 - C259 + C262 <= 81
 R133: 90 C117 - C260 + C262 <= 69
 R134: 90 C118 - C261 + C262 <= 75
 R135: 90 C120 + C262 - C263 <= 67
 R136: 90 C121 + C262 - C264 <= 79
 R137: 90 C122 + C262 - C265 <= 85
 R138: 90 C123 + C262 - C266 <= 71
 R139: 90 C124 + C262 - C267 <= 61
 R140: 90 C125 + C262 - C268 <= 67
 R141: 90 C126 + C262 - C269 <= 69
 R142: 90 C127 + C262 - C270 <= 80
 R143: 90 C129 - C256 + C263 <= 83
 R144: 90 C130 - C257 + C263 <= 60
 R145: 90 C131 - C258 + C263 <= 74
 R146: 90 C132 - C259 + C263 <= 81
 R147: 90 C133 - C260 + C263 <= 69
 R148: 90 C134 - C261 + C263 <= 75
 R149: 90 C135 - C262 + C263 <= 71
 R150: 90 C137 + C263 - C264 <= 79
 R151: 90 C138 + C263 - C265 <= 85
 R152: 90 C139 + C263 - C266 <= 71
 R153: 90 C140 + C263 - C267 <= 61
 R154: 90 C141 + C263 - C268 <= 67
 R155: 90 C142 + C263 - C269 <= 69
 R156: 90 C143 + C263 - C270 <= 80
 R157: 90 C145 - C256 + C264 <= 83
 R158: 90 C146 - C257 + C264 <= 60
 R159: 90 C147 - C258 + C264 <= 74
 R160: 90 C148 - C259 + C264 <= 81
 R161: 90 C149 - C260 + C264 <= 69
 R162: 90 C150 - C261 + C264 <= 75
 R163: 90 C151 - C262 + C264 <= 71
 R164: 90 C152 - C263 + C264 <= 67
 R165: 90 C154 + C264 - C265 <= 85
 R166: 90 C155 + C264 - C266 <= 71
 R167: 90 C156 + C264 - C267 <= 61
 R168: 90 C157 + C264 - C268 <= 67
 R169: 90 C158 + C264 - C269 <= 69
 R170: 90 C159 + C264 - C270 <= 80
 R171: 90 C161 - C256 + C265 <= 83
 R172: 90 C162 - C257 + C265 <= 60
 R173: 90 C163 - C258 + C265 <= 74
 R174: 90 C164 - C259 + C265 <= 81
 R175: 90 C165 - C260 + C265 <= 69
 R176: 90 C166 - C261 + C265 <= 75
 R177: 90 C167 - C262 + C265 <= 71
 R178: 90 C168 - C263 + C265 <= 67
 R179: 90 C169 - C264 + C265 <= 79
 R180: 90 C171 + C265 - C266 <= 71
 R181: 90 C172 + C265 - C267 <= 61
 R182: 90 C173 + C265 - C268 <= 67
 R183: 90 C174 + C265 - C269 <= 69
 R184: 90 C175 + C265 - C270 <= 80
 R185: 90 C177 - C256 + C266 <= 83
 R186: 90 C178 - C257 + C266 <= 60
 R187: 90 C179 - C258 + C266 <= 74
 R188: 90 C180 - C259 + C266 <= 81
 R189: 90 C181 - C260 + C266 <= 69
 R190: 90 C182 - C261 + C266 <= 75
 R191: 90 C183 - C262 + C266 <= 71
 R192: 90 C184 - C263 + C266 <= 67
 R193: 90 C185 - C264 + C266 <= 79
 R194: 90 C186 - C265 + C266 <= 85
 R195: 90 C188 + C266 - C267 <= 61
 R196: 90 C189 + C266 - C268 <= 67
 R197: 90 C190 + C266 - C269 <= 69
 R198: 90 C191 + C266 - C270 <= 80
 R199: 90 C193 - C256 + C267 <= 83
 R200: 90 C194 - C257 + C267 <= 60
 R201: 90 C195 - C258 + C267 <= 74
 R202: 90 C196 - C259 + C267 <= 81
 R203: 90 C197 - C260 + C267 <= 69
 R204: 90 C198 - C261 + C267 <= 75
 R205: 90 C199 - C262 + C267 <= 71
 R206: 90 C200 - C263 + C267 <= 67
 R207: 90 C201 - C264 + C267 <= 79
 R208: 90 C202 - C265 + C267 <= 85
 R209: 90 C203 - C266 + C267 <= 71
 R210: 90 C205 + C267 - C268 <= 67
 R211: 90 C206 + C267 - C269 <= 69
 R212: 90 C207 + C267 - C270 <= 80
 R213: 90 C209 - C256 + C268 <= 83
 R214: 90 C210 - C257 + C268 <= 60
 R215: 90 C211 - C258 + C268 <= 74
 R216: 90 C212 - C259 + C268 <= 81
 R217: 90 C213 - C260 + C268 <= 69
 R218: 90 C214 - C261 + C268 <= 75
 R219: 90 C215 - C262 + C268 <= 71
 R220: 90 C216 - C263 + C268 <= 67
 R221: 90 C217 - C264 + C268 <= 79
 R222: 90 C218 - C265 + C268 <= 85
 R223: 90 C219 - C266 + C268 <= 71
 R224: 90 C220 - C267 + C268 <= 61
 R225: 90 C222 + C268 - C269 <= 69
 R226: 90 C223 + C268 - C270 <= 80
 R227: 90 C225 - C256 + C269 <= 83
 R228: 90 C226 - C257 + C269 <= 60
 R229: 90 C227 - C258 + C269 <= 74
 R230: 90 C228 - C259 + C269 <= 81
 R231: 90 C229 - C260 + C269 <= 69
 R232: 90 C230 - C261 + C269 <= 75
 R233: 90 C231 - C262 + C269 <= 71
 R234: 90 C232 - C263 + C269 <= 67
 R235: 90 C233 - C264 + C269 <= 79
 R236: 90 C234 - C265 + C269 <= 85
 R237: 90 C235 - C266 + C269 <= 71
 R238: 90 C236 - C267 + C269 <= 61
 R239: 90 C237 - C268 + C269 <= 67
 R240: 90 C239 + C269 - C270 <= 80
 R241: 90 C241 - C256 + C270 <= 83
 R242: 90 C242 - C257 + C270 <= 60
 R243: 90 C243 - C258 + C270 <= 74
 R244: 90 C244 - C259 + C270 <= 81
 R245: 90 C245 - C260 + C270 <= 69
 R246: 90 C246 - C261 + C270 <= 75
 R247: 90 C247 - C262 + C270 <= 71
 R248: 90 C248 - C263 + C270 <= 67
 R249: 90 C249 - C264 + C270 <= 79
 R250: 90 C250 - C265 + C270 <= 85
 R251: 90 C251 - C266 + C270 <= 71
 R252: 90 C252 - C267 + C270 <= 61
 R253: 90 C253 - C268 + C270 <= 67
 R254: 90 C254 - C269 + C270 <= 69
Bounds
 7 <= C256 <= 90
 30 <= C257 <= 90
 16 <= C258 <= 90
 9 <= C259 <= 90
 21 <= C260 <= 90
 15 <= C261 <= 90
 19 <= C262 <= 90
 23 <= C263 <= 90
 11 <= C264 <= 90
 5 <= C265 <= 90
 19 <= C266 <= 90
 29 <= C267 <= 90
 23 <= C268 <= 90
 21 <= C269 <= 90
 10 <= C270 <= 90
Binaries
 C0 C1 C2 C3 C4 C5 C6 C7 C8 C9 C10 C11 C12 C13 C14 C15 C16 C17 C18 C19 C20
 C21 C22 C23 C24 C25 C26 C27 C28 C29 C30 C31 C32 C33 C34 C35 C36 C37 C38
 C39 C40 C41 C42 C43 C44 C45 C46 C47 C48 C49 C50 C51 C52 C53 C54 C55 C56
 C57 C58 C59 C60 C61 C62 C63 C64 C65 C66 C67 C68 C69 C70 C71 C72 C73 C74
 C75 C76 C77 C78 C79 C80 C81 C82 C83 C84 C85 C86 C87 C88 C89 C90 C91 C92
 C93 C94 C95 C96 C97 C98 C99 C100 C101 C102 C103 C104 C105 C106 C107 C108
 C109 C110 C111 C112 C113 C114 C115 C116 C117 C118 C119 C120 C121 C122 C123
 C124 C125 C126 C127 C128 C129 C130 C131 C132 C133 C134 C135 C136 C137 C138
 C139 C140 C141 C142 C143 C144 C145 C146 C147 C148 C149 C150 C151 C152 C153
 C154 C155 C156 C157 C158 C159 C160 C161 C162 C163 C164 C165 C166 C167 C168
 C169 C170 C171 C172 C173 C174 C175 C176 C177 C178 C179 C180 C181 C182 C183
 C184 C185 C186 C187 C188 C189 C190 C191 C192 C193 C194 C195 C196 C197 C198
 C199 C200 C201 C202 C203 C204 C205 C206 C207 C208 C209 C210 C211 C212 C213
 C214 C215 C216 C217 C218 C219 C220 C221 C222 C223 C224 C225 C226 C227 C228
 C229 C230 C231 C232 C233 C234 C235 C236 C237 C238 C239 C240 C241 C242 C243
 C244 C245 C246 C247 C248 C249 C250 C251 C252 C253 C254 C255
End
